NAME : rat99.1542.tour
COMMENT : Cost = 516_1542
COMMENT : Found by LKH [Keld Helsgaun] Thu Nov 16 14:48:59 2017
TYPE : TOUR
DIMENSION : 101
TOUR_SECTION
1
3
14
15
16
25
26
33
34
43
42
51
52
53
62
61
70
71
80
81
72
63
54
45
44
36
35
27
17
18
9
8
7
6
5
4
100
10
19
28
37
46
55
64
74
73
82
83
91
92
93
94
95
86
85
84
76
75
66
65
56
57
47
38
29
30
20
11
101
2
22
21
31
40
39
48
49
58
59
67
68
77
88
87
96
97
98
99
90
89
79
78
69
60
50
41
32
24
23
13
12
-1
EOF
